21 55 54 53 38 7 4 5 90 94 
95 41 28 15 14 3 20 22 69 51 
67 78 76 82 58 64 86 66 63 18 
61 25 27 26 1 52 36 32 31 49 50 
13 17 8 10 93 6 99 12 46 
34 59 35 56 45 79 80 73 71 72 
98 91 62 70 39 68 57 81 89 
42 47 40 74 11 19 23 24 29 48 
65 60 97 75 9 100 96 2 37 
33 83 44 84 77 85 43 16 
87 92 88 
30 

